p td 100 99
0 1
0 2
0 3
0 4
0 17
0 26
0 32
0 42
0 50
0 55
0 67
0 76
1 9
1 10
1 14
2 5
2 6
2 21
2 45
2 97
3 7
3 8
3 11
3 12
3 15
3 19
3 22
3 31
3 33
3 34
3 35
3 38
3 40
3 41
3 47
3 48
3 54
3 73
3 78
3 91
4 27
4 44
4 58
5 23
6 30
6 39
6 61
6 62
7 53
8 18
8 29
9 13
9 20
9 69
9 74
10 24
10 84
11 75
12 37
12 59
12 80
12 90
12 96
15 16
16 25
16 51
17 28
17 86
19 36
19 49
19 92
20 60
21 79
21 81
21 98
23 87
25 56
29 43
29 46
29 63
29 68
29 70
30 99
34 72
35 64
35 66
36 65
41 71
46 52
46 88
46 94
49 57
51 77
51 85
55 82
61 83
61 89
62 93
71 95
